TIME 50
9928
42688
10974
42688
10426
42688
8197
42688
8075
42688
7538
42688
9165
42688
7146
42688
10775
42688
5597
42688
TIME 100
9026
42688
8983
42688
9918
42688
12452
42688
7621
42688
10223
42688
9580
42688
12920
42688
9159
42688
9553
42688
TIME 150
8957
42688
10568
42688
10807
42688
8997
42688
10491
42688
9976
42688
10046
42688
11519
42688
11624
42688
8953
42688
TIME 200
13295
42688
11233
42688
13445
42688
13027
42688
9954
42688
14022
42688
15672
42688
10850
42688
14703
42688
10083
42688
TIME 250
8202
42688
6943
42688
13024
42688
8224
42688
12154
42688
12226
42688
12482
42688
11823
42688
14296
42688
5823
42688
TIME 300
9475
42688
14225
42688
11507
42688
7050
42688
14976
42688
6222
42688
10485
42688
10566
42688
10297
42688
9076
42688
TIME 350
16882
42688
14236
42688
8728
42688
